site/input/auxiliary/CO2_RCP26.rcp
1951  313
1952  313
1953  314
1954  314
1955  315
1956  315
1957  315
1958  316
1959  316
1960  317
1961  317
1962  318
1963  318
1964  319
1965  320
1966  321
1967  322
1968  323
1969  324
1970  325
1971  326
1972  327
1973  329
1974  330
1975  331
1976  332
1977  333
1978  335
1979  337
1980  338
1981  340
1982  341
1983  342
1984  344
1985  345
1986  347
1987  349
1988  351
1989  352
1990  354
1991  355
1992  356
1993  357
1994  358
1995  360
1996  361
1997  363
1998  365
1999  367
2000  369
2001  370
2002  373
2003  375
2004  377
2005  379
2006  381
2007  383
2008  385
2009  387
2010  389
2011  392
2012  394
2013  396
2014  398
2015  401
2016  403
2017  405
2018  408
2019  410
2020  412
2021  414
2022  417
2023  419
2024  421
2025  423
2026  424
2027  426
2028  428
2029  429
2030  431
2031  432
2032  433
2033  435
2034  436
2035  437
2036  438
2037  438
2038  439
2039  440
2040  440
2041  441
2042  441
2043  441
2044  442
2045  442
2046  442
2047  442
2048  442
2049  443
2050  443
2051  443
2052  443
2053  443
2054  443
2055  443
2056  442
2057  442
2058  442
2059  442
2060  442
2061  441
2062  441
2063  441
2064  440
2065  440
2066  440
2067  439
2068  439
2069  438
2070  437
2071  437
2072  436
2073  436
2074  435
2075  435
2076  434
2077  433
2078  433
2079  432
2080  432
2081  431
2082  431
2083  430
2084  429
2085  429
2086  428
2087  428
2088  427
2089  427
2090  426
2091  425
2092  425
2093  424
2094  424
2095  423
2096  423
2097  422
2098  422
2099  421
2100  421