inst/defaultDir/input/auxiliary/CO2_RCP26.txt
1951  311.1
1952  311.5
1953  311.9
1954  312.4
1955  313.0
1956  313.6
1957  314.2
1958  314.9
1959  316.0
1960  316.9
1961  317.6
1962  318.5
1963  319.0
1964  319.6
1965  320.0
1966  321.4
1967  322.2
1968  323.0
1969  324.6
1970  325.7
1971  326.3
1972  327.5
1973  329.7
1974  330.2
1975  331.1
1976  332.0
1977  333.8
1978  335.4
1979  336.8
1980  338.8
1981  340.1
1982  341.5
1983  343.1
1984  344.7
1985  346.1
1986  347.4
1987  349.2
1988  351.6
1989  353.1
1990  354.4
1991  355.6
1992  356.5
1993  357.1
1994  358.8
1995  360.8
1996  362.6
1997  363.7
1998  366.7
1999  368.4
2000  369.6
2001  371.1
2002  373.3
2003  375.8
2004  377.5
2005  379.8
2006  381.9
2007  383.8
2008  385.6
2009  387.4
2010  389.9
2011  391.7
2012  393.9
2013  396.5
2014  398.7
2015  400.8
2016  404.2
2017  406.6
2018  408.5
2019  410
2020  412
2021  414
2022  417
2023  419
2024  421
2025  423
2026  424
2027  426
2028  428
2029  429
2030  431
2031  432
2032  433
2033  435
2034  436
2035  437
2036  438
2037  438
2038  439
2039  440
2040  440
2041  441
2042  441
2043  441
2044  442
2045  442
2046  442
2047  442
2048  442
2049  443
2050  443
2051  443
2052  443
2053  443
2054  443
2055  443
2056  442
2057  442
2058  442
2059  442
2060  442
2061  441
2062  441
2063  441
2064  440
2065  440
2066  440
2067  439
2068  439
2069  438
2070  437
2071  437
2072  436
2073  436
2074  435
2075  435
2076  434
2077  433
2078  433
2079  432
2080  432
2081  431
2082  431
2083  430
2084  429
2085  429
2086  428
2087  428
2088  427
2089  427
2090  426
2091  425
2092  425
2093  424
2094  424
2095  423
2096  423
2097  422
2098  422
2099  421
2100  421
